mixintcount/benchmarks/random_v2l/3_3_199.in
12 5
#	x1	x2	x3;		0 = Real; 1 = Integer
	1	1	1
1	10	-7	-8	-179
1	9	-10	7	142
1	-1	-6	-1	27
1	-6	1	8	21
1	-1	8	4	143
1	3	6	-10	175
1	1	0	0	199
1	-1	0	0	199
1	0	1	0	199
1	0	-1	0	199
1	0	0	1	199
1	0	0	-1	199
